l=984;
a=2;
setup_costs=[|8,20,
|19,8,
|0,0|];
setup_times=[|12,16,
|15,10,
|0,0|];
m=5;
min_cap=[0,0,0,0,0];
max_cap=[66,95,70,61,71];

initState=[1,1,1,1,2];
s=5;
m_a_s = [|0,0,0,0,106,
|0,0,0,0,118,
|0,0,0,50,546,
|114,352,572,779,901,
|0,0,0,69,770|];
m_a_e = [|0,0,0,0,950,
|0,0,0,0,928,
|0,0,0,506,942,
|302,552,743,877,966,
|0,0,0,742,934|];
n=10;
eligible_machine = [{5,1,3,4},
{3,2,4},
{3,1,2,4,5},
{2,1},
{2,1,3},
{4,5},
{1,2,3,5},
{5,1,3,4},
{3,1,4,5},
{2,1,4}];
earliest_start=[5,20,40,9,29,53,0,32,30,11];
latest_end=[89,106,169,36,122,60,133,138,104,74];
min_time=[59,62,87,20,50,6,68,100,43,43];
max_time=[100,100,100,100,100,100,100,100,100,100];
size=[17,19,16,20,14,9,9,2,13,16];
attribute=[2,1,1,1,2,1,2,2,2,1];

upper_bound_integer_objective=1191728;
mult_factor_total_runtime=2211;
mult_factor_finished_toolate=201;
mult_factor_total_setuptimes=0;
mult_factor_total_setupcosts=1;
running_time_bound=538;
min_duration=6;
max_duration=100;
max_setup_time=16;
max_setup_cost=20;
